4 10 18 14 6 15 7 8 11 0 16 17 12 9 19 5 3 13 2 1  
4 10 18 14 6 15 11 7 9 19 12 0 8 5 17 1 13 2 16 3  
4 10 18 14 6 7 8 11 15 0 2 17 12 9 19 5 3 13 16 1  
4 10 18 14 6 15 17 8 16 11 0 12 5 9 19 2 13 7 3 1  
4 10 18 14 6 15 17 8 16 11 0 12 5 9 19 3 1 7 2 13  
4 10 18 14 6 15 11 7 9 19 12 0 8 5 17 1 2 13 16 3  
4 10 18 14 6 15 7 8 11 0 16 17 12 9 19 5 3 13 2 1  
4 10 18 14 6 15 17 8 16 11 0 1 5 9 19 2 13 12 3 7  
4 10 18 14 6 7 8 11 17 15 16 0 12 9 19 5 3 13 2 1  
4 10 18 14 6 15 17 8 16 11 0 12 5 9 19 2 7 3 1 13  
4 10 18 14 6 15 11 7 9 19 12 0 8 5 17 1 2 13 16 3  
4 10 18 14 6 11 7 8 0 15 17 12 16 5 9 13 2 1 3 19  
4 10 18 14 6 15 7 8 11 0 16 17 12 9 19 5 2 13 3 1  
4 10 18 14 6 15 17 8 11 16 0 12 5 9 19 2 7 3 1 13  
4 10 18 14 6 7 8 11 17 15 16 0 12 9 19 5 3 1 2 13  
4 10 18 14 6 7 8 11 17 15 16 0 12 9 19 5 3 1 2 13  
4 10 18 14 6 15 7 11 9 8 0 19 12 5 17 1 2 13 16 3  
4 10 18 14 6 15 17 8 16 11 0 12 5 9 19 2 7 3 1 13  
4 10 18 14 6 11 17 8 15 7 16 0 12 9 19 5 3 13 2 1  
4 10 18 14 6 11 17 8 15 16 0 12 5 9 19 7 2 3 13 1  
4 10 18 14 6 11 17 8 15 16 0 12 5 9 13 2 7 1 3 19  
4 10 18 14 6 15 0 8 11 12 17 16 5 9 13 2 7 3 1 19  
4 10 18 14 6 15 11 7 9 19 12 0 8 5 17 1 2 13 16 3  
4 10 18 14 6 15 0 8 11 12 17 16 5 9 13 2 7 3 19 1  
4 10 18 14 6 11 7 8 0 12 17 15 16 5 9 19 3 2 1 13  
4 10 18 14 15 6 11 7 9 19 12 0 8 5 17 1 2 13 16 3  
4 10 18 14 6 11 17 8 15 16 0 12 5 9 13 2 1 7 3 19  
4 10 18 15 14 6 11 7 9 8 19 0 12 5 17 1 2 13 16 3  
4 10 18 14 6 15 17 8 16 11 0 12 5 9 19 7 3 1 2 13  
4 10 18 14 6 15 17 8 16 11 0 12 5 9 19 3 1 7 2 13  
4 10 18 14 6 15 11 7 9 19 12 0 8 5 17 1 2 13 16 3  
4 10 18 14 6 15 17 8 11 16 0 12 5 9 19 2 7 3 13 1  
4 10 18 14 6 15 0 8 11 12 17 16 5 9 13 2 7 3 1 19  
4 10 18 14 6 15 0 8 11 12 17 16 5 9 13 2 7 1 19 3  
4 10 18 15 6 14 7 11 5 17 12 9 16 13 2 0 1 19 3 8  
4 10 18 14 6 11 17 8 15 12 0 16 5 9 19 2 7 3 1 13  
4 10 18 14 15 6 11 7 9 8 12 0 19 5 2 1 17 13 16 3  
4 10 18 14 6 15 7 11 9 8 17 19 12 5 0 1 2 13 16 3  
4 10 18 14 15 6 11 7 9 19 12 5 8 0 17 1 2 13 16 3  
